p wcnf 126 304
w -2 0.367879 0
w 2 2.718282 0
w -3 0.367879 0
w 3 2.718282 0
w -4 0.367879 0
w 4 2.718282 0
w -5 0.367879 0
w 5 2.718282 0
w -7 0.367879 0
w 7 2.718282 0
w -8 0.367879 0
w 8 2.718282 0
w -10 0.367879 0
w 10 2.718282 0
w -11 0.367879 0
w 11 2.718282 0
w -12 0.367879 0
w 12 2.718282 0
w -13 0.367879 0
w 13 2.718282 0
w -15 0.367879 0
w 15 2.718282 0
w -16 0.367879 0
w 16 2.718282 0
w -17 0.367879 0
w 17 2.718282 0
w -18 0.367879 0
w 18 2.718282 0
w -20 0.367879 0
w 20 2.718282 0
w -21 0.367879 0
w 21 2.718282 0
w -22 0.367879 0
w 22 2.718282 0
w -24 0.367879 0
w 24 2.718282 0
w -25 0.367879 0
w 25 2.718282 0
w -26 0.367879 0
w 26 2.718282 0
w -27 0.367879 0
w 27 2.718282 0
w -29 0.367879 0
w 29 2.718282 0
w -30 0.367879 0
w 30 2.718282 0
w -32 0.367879 0
w 32 2.718282 0
w -33 0.367879 0
w 33 2.718282 0
w -35 0.367879 0
w 35 2.718282 0
w -36 0.367879 0
w 36 2.718282 0
w -37 0.367879 0
w 37 2.718282 0
w -38 0.367879 0
w 38 2.718282 0
w -39 0.367879 0
w 39 2.718282 0
w -41 0.367879 0
w 41 2.718282 0
w -43 0.367879 0
w 43 2.718282 0
w -45 0.367879 0
w 45 2.718282 0
w -47 0.367879 0
w 47 2.718282 0
w -48 0.367879 0
w 48 2.718282 0
w -49 0.367879 0
w 49 2.718282 0
w -51 0.367879 0
w 51 2.718282 0
w -52 0.367879 0
w 52 2.718282 0
w -54 0.367879 0
w 54 2.718282 0
w -55 0.367879 0
w 55 2.718282 0
w -56 0.367879 0
w 56 2.718282 0
w -57 0.367879 0
w 57 2.718282 0
w -59 0.367879 0
w 59 2.718282 0
w -60 0.367879 0
w 60 2.718282 0
w -62 0.367879 0
w 62 2.718282 0
w -63 0.367879 0
w 63 2.718282 0
w -65 0.367879 0
w 65 2.718282 0
w -66 0.367879 0
w 66 2.718282 0
w -67 0.367879 0
w 67 2.718282 0
w -69 0.367879 0
w 69 2.718282 0
w -71 0.367879 0
w 71 2.718282 0
w -72 0.367879 0
w 72 2.718282 0
w -74 0.367879 0
w 74 2.718282 0
w -75 0.367879 0
w 75 2.718282 0
w -77 0.367879 0
w 77 2.718282 0
w -78 0.367879 0
w 78 2.718282 0
w -80 0.367879 0
w 80 2.718282 0
w -81 0.367879 0
w 81 2.718282 0
w -83 0.367879 0
w 83 2.718282 0
w -85 0.367879 0
w 85 2.718282 0
w -86 0.367879 0
w 86 2.718282 0
w -87 0.367879 0
w 87 2.718282 0
w -90 0.367879 0
w 90 2.718282 0
w -91 0.367879 0
w 91 2.718282 0
w -92 0.367879 0
w 92 2.718282 0
w -95 0.367879 0
w 95 2.718282 0
w -97 0.367879 0
w 97 2.718282 0
w -98 0.367879 0
w 98 2.718282 0
w -101 0.367879 0
w 101 2.718282 0
w -103 0.367879 0
w 103 2.718282 0
w -106 0.367879 0
w 106 2.718282 0
w -109 0.367879 0
w 109 2.718282 0
w -111 0.367879 0
w 111 2.718282 0
w -117 0.367879 0
w 117 2.718282 0
w -118 0.367879 0
w 118 2.718282 0
w -120 0.367879 0
w 120 2.718282 0
2 1 42 0
2 -1 -42 0
-2 1 -42 0
-2 -1 42 0
3 1 70 0
3 -1 -70 0
-3 1 -70 0
-3 -1 70 0
4 1 73 0
4 -1 -73 0
-4 1 -73 0
-4 -1 73 0
5 1 102 0
5 -1 -102 0
-5 1 -102 0
-5 -1 102 0
7 6 119 0
7 -6 -119 0
-7 6 -119 0
-7 -6 119 0
8 6 122 0
8 -6 -122 0
-8 6 -122 0
-8 -6 122 0
10 9 42 0
10 -9 -42 0
-10 9 -42 0
-10 -9 42 0
11 9 84 0
11 -9 -84 0
-11 9 -84 0
-11 -9 84 0
12 9 94 0
12 -9 -94 0
-12 9 -94 0
-12 -9 94 0
13 9 123 0
13 -9 -123 0
-13 9 -123 0
-13 -9 123 0
15 14 34 0
15 -14 -34 0
-15 14 -34 0
-15 -14 34 0
16 14 102 0
16 -14 -102 0
-16 14 -102 0
-16 -14 102 0
17 14 104 0
17 -14 -104 0
-17 14 -104 0
-17 -14 104 0
18 14 121 0
18 -14 -121 0
-18 14 -121 0
-18 -14 121 0
20 19 73 0
20 -19 -73 0
-20 19 -73 0
-20 -19 73 0
21 19 79 0
21 -19 -79 0
-21 19 -79 0
-21 -19 79 0
22 19 102 0
22 -19 -102 0
-22 19 -102 0
-22 -19 102 0
24 23 93 0
24 -23 -93 0
-24 23 -93 0
-24 -23 93 0
25 23 114 0
25 -23 -114 0
-25 23 -114 0
-25 -23 114 0
26 23 124 0
26 -23 -124 0
-26 23 -124 0
-26 -23 124 0
27 23 125 0
27 -23 -125 0
-27 23 -125 0
-27 -23 125 0
29 28 61 0
29 -28 -61 0
-29 28 -61 0
-29 -28 61 0
30 28 116 0
30 -28 -116 0
-30 28 -116 0
-30 -28 116 0
32 31 82 0
32 -31 -82 0
-32 31 -82 0
-32 -31 82 0
33 31 96 0
33 -31 -96 0
-33 31 -96 0
-33 -31 96 0
35 34 44 0
35 -34 -44 0
-35 34 -44 0
-35 -34 44 0
36 34 82 0
36 -34 -82 0
-36 34 -82 0
-36 -34 82 0
37 34 89 0
37 -34 -89 0
-37 34 -89 0
-37 -34 89 0
38 34 108 0
38 -34 -108 0
-38 34 -108 0
-38 -34 108 0
39 34 123 0
39 -34 -123 0
-39 34 -123 0
-39 -34 123 0
41 40 100 0
41 -40 -100 0
-41 40 -100 0
-41 -40 100 0
43 42 113 0
43 -42 -113 0
-43 42 -113 0
-43 -42 113 0
45 44 115 0
45 -44 -115 0
-45 44 -115 0
-45 -44 115 0
47 46 82 0
47 -46 -82 0
-47 46 -82 0
-47 -46 82 0
48 46 123 0
48 -46 -123 0
-48 46 -123 0
-48 -46 123 0
49 46 124 0
49 -46 -124 0
-49 46 -124 0
-49 -46 124 0
51 50 93 0
51 -50 -93 0
-51 50 -93 0
-51 -50 93 0
52 50 108 0
52 -50 -108 0
-52 50 -108 0
-52 -50 108 0
54 53 68 0
54 -53 -68 0
-54 53 -68 0
-54 -53 68 0
55 53 73 0
55 -53 -73 0
-55 53 -73 0
-55 -53 73 0
56 53 102 0
56 -53 -102 0
-56 53 -102 0
-56 -53 102 0
57 53 113 0
57 -53 -113 0
-57 53 -113 0
-57 -53 113 0
59 58 102 0
59 -58 -102 0
-59 58 -102 0
-59 -58 102 0
60 58 125 0
60 -58 -125 0
-60 58 -125 0
-60 -58 125 0
62 61 64 0
62 -61 -64 0
-62 61 -64 0
-62 -61 64 0
63 61 124 0
63 -61 -124 0
-63 61 -124 0
-63 -61 124 0
65 64 113 0
65 -64 -113 0
-65 64 -113 0
-65 -64 113 0
66 64 116 0
66 -64 -116 0
-66 64 -116 0
-66 -64 116 0
67 64 124 0
67 -64 -124 0
-67 64 -124 0
-67 -64 124 0
69 68 108 0
69 -68 -108 0
-69 68 -108 0
-69 -68 108 0
71 70 100 0
71 -70 -100 0
-71 70 -100 0
-71 -70 100 0
72 70 124 0
72 -70 -124 0
-72 70 -124 0
-72 -70 124 0
74 73 96 0
74 -73 -96 0
-74 73 -96 0
-74 -73 96 0
75 73 119 0
75 -73 -119 0
-75 73 -119 0
-75 -73 119 0
77 76 89 0
77 -76 -89 0
-77 76 -89 0
-77 -76 89 0
78 76 110 0
78 -76 -110 0
-78 76 -110 0
-78 -76 110 0
80 79 102 0
80 -79 -102 0
-80 79 -102 0
-80 -79 102 0
81 79 107 0
81 -79 -107 0
-81 79 -107 0
-81 -79 107 0
83 82 122 0
83 -82 -122 0
-83 82 -122 0
-83 -82 122 0
85 84 104 0
85 -84 -104 0
-85 84 -104 0
-85 -84 104 0
86 84 113 0
86 -84 -113 0
-86 84 -113 0
-86 -84 113 0
87 84 125 0
87 -84 -125 0
-87 84 -125 0
-87 -84 125 0
90 89 102 0
90 -89 -102 0
-90 89 -102 0
-90 -89 102 0
91 89 108 0
91 -89 -108 0
-91 89 -108 0
-91 -89 108 0
92 89 114 0
92 -89 -114 0
-92 89 -114 0
-92 -89 114 0
95 94 100 0
95 -94 -100 0
-95 94 -100 0
-95 -94 100 0
97 96 114 0
97 -96 -114 0
-97 96 -114 0
-97 -96 114 0
98 96 115 0
98 -96 -115 0
-98 96 -115 0
-98 -96 115 0
101 100 108 0
101 -100 -108 0
-101 100 -108 0
-101 -100 108 0
103 102 107 0
103 -102 -107 0
-103 102 -107 0
-103 -102 107 0
106 105 112 0
106 -105 -112 0
-106 105 -112 0
-106 -105 112 0
109 108 119 0
109 -108 -119 0
-109 108 -119 0
-109 -108 119 0
111 110 121 0
111 -110 -121 0
-111 110 -121 0
-111 -110 121 0
117 116 123 0
117 -116 -123 0
-117 116 -123 0
-117 -116 123 0
118 116 125 0
118 -116 -125 0
-118 116 -125 0
-118 -116 125 0
120 119 121 0
120 -119 -121 0
-120 119 -121 0
-120 -119 121 0
